50
    18    32     8    39    45    34    13    30    72     9    10     7    52    37    10    71    83    65    16    39   100     4    23    42    79    32    15    29    37    92    66    63    34    92    43    22    67     8     2     2    75    78    90    12    38     8    45    79    77    70
     3     9     2     5     1     7     6    10     6     6     1    10     2     4     8     7     6     7     7     1     8     3     4     3     7     8     3     1     8     7     4     7     6     7     4     9     9     2     9     7     6     9     2     8     9     1     1     2     4     4
  1167    53   307   503   462   429     0     0   543     0   645  1076   697    27     0   593   311  1105     0   718   604   756   284   133   469     0   853  1058     0     0   500   531   864   698   592  1136   655  1246   242   591  1179   429  1007   786   590     0   606   754   941   773
